
Gurobi 8.1.1 (win64) logging started 11/24/19 10:01:17

Changed value of parameter LogFile to logs/miss/feas/miss-05-30-1.log
   Prev: gurobi.log  Default: 
Changed value of parameter LogToConsole to 0
   Prev: 1  Min: 0  Max: 1  Default: 1
Changed value of parameter TimeLimit to 3600.0
   Prev: 1e+100  Min: 0.0  Max: 1e+100  Default: 1e+100
Optimize a model with 185 rows, 81 columns and 630 nonzeros
Variable types: 0 continuous, 81 integer (75 binary)
Coefficient statistics:
  Matrix range     [1e+00, 2e+02]
  Objective range  [1e+00, 1e+00]
  Bounds range     [1e+00, 1e+00]
  RHS range        [1e+00, 2e+02]
Presolve time: 0.00s
Presolved: 185 rows, 81 columns, 630 nonzeros
Variable types: 0 continuous, 81 integer (75 binary)

Root relaxation: objective 1.900000e+01, 76 iterations, 0.00 seconds

    Nodes    |    Current Node    |     Objective Bounds      |     Work
 Expl Unexpl |  Obj  Depth IntInf | Incumbent    BestBd   Gap | It/Node Time

     0     0   19.00000    0   43          -   19.00000      -     -    0s
H    0     0                      99.0000000   19.00000  80.8%     -    0s
H    0     0                      97.0000000   19.00000  80.4%     -    0s
     0     0   28.05198    0   31   97.00000   28.05198  71.1%     -    0s
     0     0   28.22365    0   29   97.00000   28.22365  70.9%     -    0s
     0     0   33.20864    0   18   97.00000   33.20864  65.8%     -    0s
H    0     0                      95.0000000   33.20864  65.0%     -    0s
     0     0   34.09469    0   17   95.00000   34.09469  64.1%     -    0s
     0     0   34.83416    0   19   95.00000   34.83416  63.3%     -    0s
     0     0   34.83442    0   19   95.00000   34.83442  63.3%     -    0s
     0     0   34.87204    0   19   95.00000   34.87204  63.3%     -    0s
     0     0   34.87204    0   17   95.00000   34.87204  63.3%     -    0s
     0     0   34.87204    0   19   95.00000   34.87204  63.3%     -    0s
H    0     0                      94.0000000   34.87204  62.9%     -    0s
     0     0   39.00000    0   16   94.00000   39.00000  58.5%     -    0s
H    0     0                      91.0000000   39.00000  57.1%     -    0s
     0     0   40.63031    0   16   91.00000   40.63031  55.4%     -    0s
     0     0   40.74494    0   21   91.00000   40.74494  55.2%     -    0s
     0     0   40.74494    0   22   91.00000   40.74494  55.2%     -    0s
     0     0   41.42232    0   25   91.00000   41.42232  54.5%     -    0s
     0     0   41.86054    0   22   91.00000   41.86054  54.0%     -    0s
     0     0   44.17952    0   19   91.00000   44.17952  51.5%     -    0s
     0     0   44.58177    0   19   91.00000   44.58177  51.0%     -    0s
     0     0   58.52594    0   15   91.00000   58.52594  35.7%     -    0s
     0     0   58.86957    0   12   91.00000   58.86957  35.3%     -    0s
     0     0   59.36915    0   18   91.00000   59.36915  34.8%     -    0s
     0     0   59.40608    0   18   91.00000   59.40608  34.7%     -    0s
     0     0   59.40608    0   18   91.00000   59.40608  34.7%     -    0s
     0     0   59.41270    0   18   91.00000   59.41270  34.7%     -    0s
     0     0   59.41270    0   18   91.00000   59.41270  34.7%     -    0s
     0     0   64.16694    0   24   91.00000   64.16694  29.5%     -    0s
     0     0   64.96919    0   23   91.00000   64.96919  28.6%     -    0s
     0     0   65.44395    0   23   91.00000   65.44395  28.1%     -    0s
     0     0   65.78181    0   24   91.00000   65.78181  27.7%     -    0s
     0     0   65.90635    0   23   91.00000   65.90635  27.6%     -    0s
     0     0   66.00504    0   23   91.00000   66.00504  27.5%     -    0s
     0     0   66.10071    0   23   91.00000   66.10071  27.4%     -    0s
     0     0   67.34108    0   23   91.00000   67.34108  26.0%     -    0s
     0     0   67.54480    0   23   91.00000   67.54480  25.8%     -    0s
     0     0   67.59172    0   23   91.00000   67.59172  25.7%     -    0s
     0     0   67.69341    0   24   91.00000   67.69341  25.6%     -    0s
     0     0   67.69580    0   24   91.00000   67.69580  25.6%     -    0s
     0     0   67.93740    0   18   91.00000   67.93740  25.3%     -    0s
     0     0   68.00693    0   18   91.00000   68.00693  25.3%     -    0s
     0     0   68.04777    0   18   91.00000   68.04777  25.2%     -    0s
     0     0   68.06106    0   18   91.00000   68.06106  25.2%     -    0s
     0     0   68.70838    0   19   91.00000   68.70838  24.5%     -    0s
     0     0   68.73558    0   19   91.00000   68.73558  24.5%     -    0s
     0     0   68.74015    0   14   91.00000   68.74015  24.5%     -    0s
     0     0   68.74015    0   14   91.00000   68.74015  24.5%     -    0s
     0     2   68.74015    0   14   91.00000   68.74015  24.5%     -    0s

Cutting planes:
  Implied bound: 7
  MIR: 11

Explored 29 nodes (713 simplex iterations) in 0.12 seconds
Thread count was 4 (of 4 available processors)

Solution count 5: 91 94 95 ... 99

Optimal solution found (tolerance 1.00e-04)
Best objective 9.100000000000e+01, best bound 9.100000000000e+01, gap 0.0000%

Gurobi 8.1.1 (win64) logging started 11/24/19 10:01:17

Changed value of parameter LogFile to logs/miss/feas/miss-05-30-1.log
   Prev: gurobi.log  Default: 
Changed value of parameter LogToConsole to 0
   Prev: 1  Min: 0  Max: 1  Default: 1
Changed value of parameter TimeLimit to 3600.0
   Prev: 1e+100  Min: 0.0  Max: 1e+100  Default: 1e+100
Optimize a model with 125 rows, 55 columns and 420 nonzeros
Variable types: 0 continuous, 55 integer (50 binary)
Coefficient statistics:
  Matrix range     [1e+00, 2e+02]
  Objective range  [1e+00, 1e+00]
  Bounds range     [1e+00, 1e+00]
  RHS range        [1e+00, 2e+02]
Presolve time: 0.00s
Presolved: 125 rows, 55 columns, 420 nonzeros
Variable types: 0 continuous, 55 integer (50 binary)

Root relaxation: objective 1.875000e+01, 64 iterations, 0.00 seconds

    Nodes    |    Current Node    |     Objective Bounds      |     Work
 Expl Unexpl |  Obj  Depth IntInf | Incumbent    BestBd   Gap | It/Node Time

     0     0   18.75000    0   35          -   18.75000      -     -    0s
H    0     0                     157.0000000   18.75000  88.1%     -    0s
     0     0   30.90556    0   23  157.00000   30.90556  80.3%     -    0s
H    0     0                     152.0000000   30.90556  79.7%     -    0s
     0     0   31.03392    0   23  152.00000   31.03392  79.6%     -    0s
     0     0   31.03392    0   23  152.00000   31.03392  79.6%     -    0s
     0     0   33.45665    0   20  152.00000   33.45665  78.0%     -    0s
H    0     0                      95.0000000   33.45665  64.8%     -    0s
     0     0   33.45976    0   22   95.00000   33.45976  64.8%     -    0s
     0     0   37.56654    0   20   95.00000   37.56654  60.5%     -    0s
H    0     0                      89.0000000   37.56654  57.8%     -    0s
     0     0   39.07782    0   18   89.00000   39.07782  56.1%     -    0s
     0     0   39.11218    0   19   89.00000   39.11218  56.1%     -    0s
     0     0   39.99163    0   19   89.00000   39.99163  55.1%     -    0s
     0     0   40.00335    0   20   89.00000   40.00335  55.1%     -    0s
     0     0   40.03264    0   20   89.00000   40.03264  55.0%     -    0s
     0     0   40.76755    0   21   89.00000   40.76755  54.2%     -    0s
     0     0   40.76755    0   21   89.00000   40.76755  54.2%     -    0s
     0     0   40.76755    0   21   89.00000   40.76755  54.2%     -    0s
     0     0   40.76755    0   21   89.00000   40.76755  54.2%     -    0s
     0     0   40.78102    0   22   89.00000   40.78102  54.2%     -    0s
     0     0   40.78102    0   19   89.00000   40.78102  54.2%     -    0s
     0     2   40.78102    0   19   89.00000   40.78102  54.2%     -    0s

Cutting planes:
  Gomory: 18
  MIR: 10
  StrongCG: 1

Explored 40 nodes (599 simplex iterations) in 0.07 seconds
Thread count was 4 (of 4 available processors)

Solution count 4: 89 95 152 157 

Optimal solution found (tolerance 1.00e-04)
Best objective 8.900000000000e+01, best bound 8.900000000000e+01, gap 0.0000%
